Minimize

10.0 x_0_1 + 15.0 x_0_2 + 20.0 x_0_3 + 25.0 x_0_4 + 30.0 x_0_5 + 10.0 x_1_0 + 5.0 x_1_2 + 6.0 x_1_3 + 7.0 x_1_4 + 15.0 x_2_0 + 5.0 x_2_1 + 8.0 x_2_3 + 9.0 x_2_4 + 10.0 x_2_5 + 20.0 x_3_0 + 6.0 x_3_1 + 8.0 x_3_2 + 50.0 x_3_4 + 60.0 x_3_5 + 70.0 x_3_6 + 25.0 x_4_0 + 7.0 x_4_1 + 9.0 x_4_2 + 50.0 x_4_3 + 15.0 x_4_5 + 20.0 x_4_6 + 25.0 x_4_7 + 30.0 x_5_0 + 10.0 x_5_2 + 60.0 x_5_3 + 15.0 x_5_4 + 5.0 x_5_6 + 10.0 x_5_7 + 15.0 x_5_8 + 20.0 x_5_9 + 70.0 x_6_3 + 20.0 x_6_4 + 5.0 x_6_5 + 5.0 x_6_7 + 6.0 x_6_8 + 7.0 x_6_9 + 25.0 x_7_4 + 10.0 x_7_5 + 5.0 x_7_6 + 8.0 x_7_8 + 15.0 x_8_5 + 6.0 x_8_6 + 8.0 x_8_7 + 9.0 x_8_9 + 20.0 x_9_5 + 7.0 x_9_6 + 9.0 x_9_8


Subject To

a0: x_2_0 + x_2_1 + x_2_3 + x_2_4 + x_2_5 = 1
b0: x_3_6 + x_4_6 + x_5_6 + x_7_6 + x_8_6 + x_9_6 = 1
c0: x_0_1 + x_2_1 + x_3_1 + x_4_1 - x_1_0 - x_1_2 - x_1_3 - x_1_4 = 0
c1: x_0_3 + x_1_3 + x_2_3 + x_4_3 + x_5_3 + x_6_3 - x_3_0 - x_3_1 - x_3_2 - x_3_4 - x_3_5 - x_3_6 = 0
c2: x_0_4 + x_1_4 + x_2_4 + x_3_4 + x_5_4 + x_6_4 + x_7_4 - x_4_0 - x_4_1 - x_4_2 - x_4_3 - x_4_5 - x_4_6 - x_4_7 = 0
c3: x_0_5 + x_2_5 + x_3_5 + x_4_5 + x_6_5 + x_7_5 + x_8_5 + x_9_5 - x_5_0 - x_5_2 - x_5_3 - x_5_4 - x_5_6 - x_5_7 - x_5_8 - x_5_9 = 0
c4: x_4_7 + x_5_7 + x_6_7 + x_8_7 - x_7_4 - x_7_5 - x_7_6 - x_7_8 = 0
c5: x_5_8 + x_6_8 + x_7_8 + x_9_8 - x_8_5 - x_8_6 - x_8_7 - x_8_9 = 0
c6: x_5_9 + x_6_9 + x_8_9 - x_9_5 - x_9_6 - x_9_8 = 0
d0: y_0 - y_1 + 10 x_0_1 <= 9
d1: y_0 - y_2 + 10 x_0_2 <= 9
d2: y_0 - y_3 + 10 x_0_3 <= 9
d3: y_0 - y_4 + 10 x_0_4 <= 9
d4: y_0 - y_5 + 10 x_0_5 <= 9
d5: y_1 - y_0 + 10 x_1_0 <= 9
d6: y_1 - y_2 + 10 x_1_2 <= 9
d7: y_1 - y_3 + 10 x_1_3 <= 9
d8: y_1 - y_4 + 10 x_1_4 <= 9
d9: y_2 - y_0 + 10 x_2_0 <= 9
d10: y_2 - y_1 + 10 x_2_1 <= 9
d11: y_2 - y_3 + 10 x_2_3 <= 9
d12: y_2 - y_4 + 10 x_2_4 <= 9
d13: y_2 - y_5 + 10 x_2_5 <= 9
d14: y_3 - y_0 + 10 x_3_0 <= 9
d15: y_3 - y_1 + 10 x_3_1 <= 9
d16: y_3 - y_2 + 10 x_3_2 <= 9
d17: y_3 - y_4 + 10 x_3_4 <= 9
d18: y_3 - y_5 + 10 x_3_5 <= 9
d19: y_3 - y_6 + 10 x_3_6 <= 9
d20: y_4 - y_0 + 10 x_4_0 <= 9
d21: y_4 - y_1 + 10 x_4_1 <= 9
d22: y_4 - y_2 + 10 x_4_2 <= 9
d23: y_4 - y_3 + 10 x_4_3 <= 9
d24: y_4 - y_5 + 10 x_4_5 <= 9
d25: y_4 - y_6 + 10 x_4_6 <= 9
d26: y_4 - y_7 + 10 x_4_7 <= 9
d27: y_5 - y_0 + 10 x_5_0 <= 9
d28: y_5 - y_2 + 10 x_5_2 <= 9
d29: y_5 - y_3 + 10 x_5_3 <= 9
d30: y_5 - y_4 + 10 x_5_4 <= 9
d31: y_5 - y_6 + 10 x_5_6 <= 9
d32: y_5 - y_7 + 10 x_5_7 <= 9
d33: y_5 - y_8 + 10 x_5_8 <= 9
d34: y_5 - y_9 + 10 x_5_9 <= 9
d35: y_6 - y_3 + 10 x_6_3 <= 9
d36: y_6 - y_4 + 10 x_6_4 <= 9
d37: y_6 - y_5 + 10 x_6_5 <= 9
d38: y_6 - y_7 + 10 x_6_7 <= 9
d39: y_6 - y_8 + 10 x_6_8 <= 9
d40: y_6 - y_9 + 10 x_6_9 <= 9
d41: y_7 - y_4 + 10 x_7_4 <= 9
d42: y_7 - y_5 + 10 x_7_5 <= 9
d43: y_7 - y_6 + 10 x_7_6 <= 9
d44: y_7 - y_8 + 10 x_7_8 <= 9
d45: y_8 - y_5 + 10 x_8_5 <= 9
d46: y_8 - y_6 + 10 x_8_6 <= 9
d47: y_8 - y_7 + 10 x_8_7 <= 9
d48: y_8 - y_9 + 10 x_8_9 <= 9
d49: y_9 - y_5 + 10 x_9_5 <= 9
d50: y_9 - y_6 + 10 x_9_6 <= 9
d51: y_9 - y_8 + 10 x_9_8 <= 9




Binary

x_0_1 x_0_2 x_0_3 x_0_4 x_0_5 x_1_2 x_1_3 x_1_4 x_2_1 x_2_3 x_2_4 x_2_5 x_3_1 x_3_2 x_3_4 x_3_5 x_3_6 x_4_1 x_4_2 x_4_3 x_4_5 x_4_6 x_4_7 x_5_2 x_5_3 x_5_4 x_5_6 x_5_7 x_5_8 x_5_9 x_6_3 x_6_4 x_6_5 x_6_7 x_6_8 x_6_9 x_7_4 x_7_5 x_7_6 x_7_8 x_8_5 x_8_6 x_8_7 x_8_9 x_9_5 x_9_6 x_9_8


General

 y_0 y_1 y_2 y_3 y_4 y_5 y_6 y_7 y_8 y_9

End
